StringID   Type       x          y          demand     ReadyTime  DueDate    ServiceTime
D0         d          40.0       50.0       0.0        0.0        960.0      0.0
S0         f          40.0       50.0       0.0        0.0        960.0      0.0
S3         f          55.0       79.0       0.0        0.0        960.0      0.0
S6         f          39.0       96.0       0.0        0.0        960.0      0.0
S9         f          18.0       58.0       0.0        0.0        960.0      0.0
S12        f          -5.0       38.0       0.0        0.0        960.0      0.0
S15        f          39.0       31.0       0.0        0.0        960.0      0.0
S18        f          73.0       23.0       0.0        0.0        960.0      0.0
C2         c          22.0       75.0       30.0       63.0       183.0      10.0
C4         c          20.0       80.0       40.0       712.0      832.0      10.0
C6         c          18.0       75.0       20.0       258.0      378.0      10.0
C8         c          15.0       80.0       10.0       440.0      560.0      10.0
C9         c          10.0       35.0       20.0       654.0      774.0      10.0
C10        c          10.0       40.0       30.0       406.0      526.0      10.0
C14        c          5.0        45.0       10.0       198.0      318.0      10.0
C15        c          2.0        40.0       20.0       748.0      868.0      10.0
C17        c          0.0        45.0       20.0       176.0      296.0      10.0
C18        c          44.0       5.0        20.0       784.0      904.0      10.0
C21        c          40.0       5.0        10.0       522.0      642.0      10.0
C22        c          40.0       15.0       40.0       621.0      741.0      10.0
C23        c          38.0       5.0        30.0       269.0      389.0      10.0
C27        c          95.0       35.0       20.0       675.0      795.0      10.0
C30        c          88.0       30.0       10.0       416.0      536.0      10.0
C35        c          67.0       85.0       20.0       647.0      767.0      10.0
C38        c          62.0       80.0       30.0       105.0      225.0      10.0
C45        c          20.0       82.0       10.0       646.0      766.0      10.0
C52        c          25.0       30.0       3.0        553.0      673.0      10.0
C57        c          30.0       25.0       23.0       226.0      346.0      10.0
C64        c          45.0       30.0       17.0       628.0      748.0      10.0
C67        c          64.0       42.0       9.0        26.0       146.0      10.0
C70        c          35.0       69.0       23.0       398.0      518.0      10.0
C79        c          6.0        68.0       30.0       39.0       159.0      10.0

Q xxxxxxxxxxxxxxxxxxxx /211.04/
C xxxxxxxxxxxxxxxxxxxxx /1000.0/
r xxxxxxxxxxxxxx /1.0/
g xxxxxxxxxxxxxxxxxxxxxxx /0.14/
v xxxxxxxxxxxxxxx /1.0/
